
Log started (V11.0.0) Sun Apr 13 14:12:49 2008

Tried aggregator 1 time.
Reduced MIP has 510 rows, 5001 columns, and 10010 nonzeros.
Presolve time =    0.03 sec.
Clique table members: 500.
MIP emphasis: balance optimality and feasibility.
MIP search method: dynamic search.
Parallel mode: none, using 1 thread.
Root relaxation solution time =    0.12 sec.

        Nodes                                         Cuts/
   Node  Left     Objective  IInf  Best Integer     Best Node    ItCnt     Gap

*     0+    0                        25660.0000      498.4202      581   98.06%
*     0+    0                          512.0000      498.4202      581    2.65%
      0     0      499.0000    18      512.0000      Fract: 9      591    2.54%
*     0+    0                          511.0000      499.0000      591    2.35%
      0     0      499.0000    20      511.0000     Covers: 1      603    2.35%
*     0+    0                          510.0000      499.0000      603    2.16%
      0     0      499.0000    24      510.0000     Covers: 1      627    2.16%
*     0+    0                          509.0000      499.0000      627    1.96%
*     0+    0                          507.0000      499.0000      627    1.58%
      0     2      499.0000    24      507.0000      499.0000      627    1.58%
*    30+   24                          506.0000      499.0000     1994    1.38%
*    60+   46                          504.0000      499.0000     3113    0.99%
    100    67      502.7951    18      504.0000      499.0000     3816    0.99%
    200   121      503.0000    14      504.0000      499.0000     6223    0.99%
*   257+   96                          503.0000      499.0000     7485    0.80%
*   257+   42                          502.0000      499.0000     7485    0.60%
    300    80      500.0000    20      502.0000      499.0000     8131    0.60%
    400   146      500.0000    15      502.0000      499.0000     9678    0.60%
    500   222      500.0000    18      502.0000      499.0000    10859    0.60%
*   533+  162                          501.0000      499.0000    12752    0.40%
    600   164      500.0000    16      501.0000      499.0000    14181    0.40%
    700   157      499.0000    48      501.0000      499.0000    16726    0.40%
    800   189      500.0000    23      501.0000      499.0000    20164    0.40%
    900   266      500.0000    26      501.0000      499.0000    23933    0.40%
   1000   340      500.0000    25      501.0000      499.0000    27248    0.40%
Elapsed time =  14.02 sec. (tree size =  0.26 MB, solutions = 11)
*  1033+   82                          500.0000      499.0000    28067    0.20%
   1100   100      499.0000    42      500.0000      499.0000    35892    0.20%
   1200   154    infeasible            500.0000      499.0000    44831    0.20%
   1300   188      499.0000    55      500.0000      499.0000    56860    0.20%
   1400   206    infeasible            500.0000      499.0000    73301    0.20%
   1500   198      499.0000    59      500.0000      499.0000    97038    0.20%
   1600   208    infeasible            500.0000      499.0000   116493    0.20%
   1700   238    infeasible            500.0000      499.0000   134233    0.20%
   1800   176    infeasible            500.0000      499.0000   167141    0.20%
   1900   188      499.0000    85      500.0000      499.0000   187426    0.20%
   2000   176    infeasible            500.0000      499.0000   210892    0.20%
Elapsed time =  68.81 sec. (tree size =  0.12 MB, solutions = 12)
   2100   156    infeasible            500.0000      499.0000   237660    0.20%
   2200   146    infeasible            500.0000      499.0000   261902    0.20%
   2300   106    infeasible            500.0000      499.0000   293238    0.20%
   2400    34    infeasible            500.0000      499.0000   331948    0.20%

Cover cuts applied:  577
Mixed integer rounding cuts applied:  22
Gomory fractional cuts applied:  12

Solution pool: 12 solutions saved.

MIP - Integer optimal solution:  Objective = 5.0000000000e+002
Solution time =  120.95 sec.  Iterations = 348039  Nodes = 2439


Incumbent solution
Variable Name           Solution Value
Cmax                        500.000000
X_1_8                         1.000000
X_2_3                         1.000000
X_3_3                         1.000000
X_4_6                         1.000000
X_5_6                         1.000000
X_6_4                         1.000000
X_7_9                         1.000000
X_8_3                         1.000000
X_9_3                         1.000000
X_10_7                        1.000000
X_11_6                        1.000000
X_12_4                        1.000000
X_13_1                        1.000000
X_14_5                        1.000000
X_15_9                        1.000000
X_16_9                        1.000000
X_17_6                        1.000000
X_18_9                        1.000000
X_19_1                        1.000000
X_20_9                        1.000000
X_21_8                        1.000000
X_22_1                        1.000000
X_23_7                        1.000000
X_24_2                        1.000000
X_25_9                        1.000000
X_26_8                        1.000000
X_27_3                        1.000000
X_28_8                        1.000000
X_29_2                        1.000000
X_30_6                        1.000000
X_31_6                        1.000000
X_32_6                        1.000000
X_33_1                        1.000000
X_34_5                        1.000000
X_35_2                        1.000000
X_36_1                        1.000000
X_37_7                        1.000000
X_38_2                        1.000000
X_39_5                        1.000000
X_40_5                        1.000000
X_41_2                        1.000000
X_42_2                        1.000000
X_43_7                        1.000000
X_44_3                        1.000000
X_45_4                        1.000000
X_46_8                        1.000000
X_47_10                       1.000000
X_48_3                        1.000000
X_49_7                        1.000000
X_50_10                       1.000000
X_51_7                        1.000000
X_52_7                        1.000000
X_53_1                        1.000000
X_54_9                        1.000000
X_55_9                        1.000000
X_56_9                        1.000000
X_57_10                       1.000000
X_58_5                        1.000000
X_59_5                        1.000000
X_60_9                        1.000000
X_61_10                       1.000000
X_62_8                        1.000000
X_63_8                        1.000000
X_64_6                        1.000000
X_65_7                        1.000000
X_66_1                        1.000000
X_67_9                        1.000000
X_68_7                        1.000000
X_69_5                        1.000000
X_70_7                        1.000000
X_71_7                        1.000000
X_72_5                        1.000000
X_73_8                        1.000000
X_74_10                       1.000000
X_75_8                        1.000000
X_76_8                        1.000000
X_77_6                        1.000000
X_78_8                        1.000000
X_79_5                        1.000000
X_80_4                        1.000000
X_81_7                        1.000000
X_82_10                       1.000000
X_83_2                        1.000000
X_84_3                        1.000000
X_85_9                        1.000000
X_86_2                        1.000000
X_87_7                        1.000000
X_88_3                        1.000000
X_89_3                        1.000000
X_90_5                        1.000000
X_91_4                        1.000000
X_92_6                        1.000000
X_93_6                        1.000000
X_94_10                       1.000000
X_95_3                        1.000000
X_96_8                        1.000000
X_97_1                        1.000000
X_98_2                        1.000000
X_99_10                       1.000000
X_100_6                       1.000000
X_101_2                       1.000000
X_102_4                       1.000000
X_103_7                       1.000000
X_104_3                       1.000000
X_105_6                       1.000000
X_106_10                      1.000000
X_107_2                       1.000000
X_108_2                       1.000000
X_109_1                       1.000000
X_110_5                       1.000000
X_111_4                       1.000000
X_112_8                       1.000000
X_113_5                       1.000000
X_114_10                      1.000000
X_115_6                       1.000000
X_116_5                       1.000000
X_117_2                       1.000000
X_118_5                       1.000000
X_119_1                       1.000000
X_120_8                       1.000000
X_121_4                       1.000000
X_122_2                       1.000000
X_123_7                       1.000000
X_124_9                       1.000000
X_125_7                       1.000000
X_126_1                       1.000000
X_127_1                       1.000000
X_128_3                       1.000000
X_129_3                       1.000000
X_130_1                       1.000000
X_131_8                       1.000000
X_132_3                       1.000000
X_133_2                       1.000000
X_134_7                       1.000000
X_135_6                       1.000000
X_136_1                       1.000000
X_137_9                       1.000000
X_138_5                       1.000000
X_139_6                       1.000000
X_140_2                       1.000000
X_141_9                       1.000000
X_142_9                       1.000000
X_143_2                       1.000000
X_144_3                       1.000000
X_145_2                       1.000000
X_146_9                       1.000000
X_147_5                       1.000000
X_148_10                      1.000000
X_149_2                       1.000000
X_150_7                       1.000000
X_151_4                       1.000000
X_152_10                      1.000000
X_153_7                       1.000000
X_154_8                       1.000000
X_155_10                      1.000000
X_156_1                       1.000000
X_157_5                       1.000000
X_158_7                       1.000000
X_159_1                       1.000000
X_160_1                       1.000000
X_161_9                       1.000000
X_162_9                       1.000000
X_163_6                       1.000000
X_164_9                       1.000000
X_165_7                       1.000000
X_166_10                      1.000000
X_167_1                       1.000000
X_168_8                       1.000000
X_169_1                       1.000000
X_170_10                      1.000000
X_171_5                       1.000000
X_172_5                       1.000000
X_173_10                      1.000000
X_174_9                       1.000000
X_175_5                       1.000000
X_176_9                       1.000000
X_177_2                       1.000000
X_178_5                       1.000000
X_179_6                       1.000000
X_180_9                       1.000000
X_181_8                       1.000000
X_182_4                       1.000000
X_183_1                       1.000000
X_184_5                       1.000000
X_185_7                       1.000000
X_186_5                       1.000000
X_187_7                       1.000000
X_188_5                       1.000000
X_189_6                       1.000000
X_190_5                       1.000000
X_191_2                       1.000000
X_192_4                       1.000000
X_193_1                       1.000000
X_194_8                       1.000000
X_195_5                       1.000000
X_196_1                       1.000000
X_197_1                       1.000000
X_198_10                      1.000000
X_199_1                       1.000000
X_200_9                       1.000000
X_201_8                       1.000000
X_202_5                       1.000000
X_203_5                       1.000000
X_204_3                       1.000000
X_205_1                       1.000000
X_206_10                      1.000000
X_207_10                      1.000000
X_208_4                       1.000000
X_209_8                       1.000000
X_210_9                       1.000000
X_211_9                       1.000000
X_212_7                       1.000000
X_213_5                       1.000000
X_214_7                       1.000000
X_215_10                      1.000000
X_216_1                       1.000000
X_217_6                       1.000000
X_218_3                       1.000000
X_219_1                       1.000000
X_220_7                       1.000000
X_221_6                       1.000000
X_222_9                       1.000000
X_223_2                       1.000000
X_224_10                      1.000000
X_225_6                       1.000000
X_226_7                       1.000000
X_227_4                       1.000000
X_228_4                       1.000000
X_229_8                       1.000000
X_230_7                       1.000000
X_231_7                       1.000000
X_232_8                       1.000000
X_233_6                       1.000000
X_234_1                       1.000000
X_235_4                       1.000000
X_236_4                       1.000000
X_237_10                      1.000000
X_238_8                       1.000000
X_239_4                       1.000000
X_240_4                       1.000000
X_241_9                       1.000000
X_242_8                       1.000000
X_243_8                       1.000000
X_244_10                      1.000000
X_245_7                       1.000000
X_246_10                      1.000000
X_247_7                       1.000000
X_248_5                       1.000000
X_249_10                      1.000000
X_250_3                       1.000000
X_251_1                       1.000000
X_252_8                       1.000000
X_253_8                       1.000000
X_254_8                       1.000000
X_255_6                       1.000000
X_256_8                       1.000000
X_257_10                      1.000000
X_258_2                       1.000000
X_259_2                       1.000000
X_260_4                       1.000000
X_261_10                      1.000000
X_262_5                       1.000000
X_263_1                       1.000000
X_264_8                       1.000000
X_265_3                       1.000000
X_266_4                       1.000000
X_267_1                       1.000000
X_268_7                       1.000000
X_269_3                       1.000000
X_270_6                       1.000000
X_271_9                       1.000000
X_272_10                      1.000000
X_273_10                      1.000000
X_274_5                       1.000000
X_275_4                       1.000000
X_276_1                       1.000000
X_277_5                       1.000000
X_278_7                       1.000000
X_279_9                       1.000000
X_280_8                       1.000000
X_281_2                       1.000000
X_282_8                       1.000000
X_283_7                       1.000000
X_284_5                       1.000000
X_285_1                       1.000000
X_286_8                       1.000000
X_287_8                       1.000000
X_288_3                       1.000000
X_289_9                       1.000000
X_290_4                       1.000000
X_291_5                       1.000000
X_292_1                       1.000000
X_293_7                       1.000000
X_294_6                       1.000000
X_295_7                       1.000000
X_296_3                       1.000000
X_297_6                       1.000000
X_298_9                       1.000000
X_299_8                       1.000000
X_300_4                       1.000000
X_301_10                      1.000000
X_302_6                       1.000000
X_303_8                       1.000000
X_304_9                       1.000000
X_305_2                       1.000000
X_306_5                       1.000000
X_307_9                       1.000000
X_308_6                       1.000000
X_309_1                       1.000000
X_310_2                       1.000000
X_311_10                      1.000000
X_312_2                       1.000000
X_313_5                       1.000000
X_314_7                       1.000000
X_315_3                       1.000000
X_316_1                       1.000000
X_317_5                       1.000000
X_318_1                       1.000000
X_319_6                       1.000000
X_320_3                       1.000000
X_321_5                       1.000000
X_322_2                       1.000000
X_323_3                       1.000000
X_324_2                       1.000000
X_325_2                       1.000000
X_326_4                       1.000000
X_327_5                       1.000000
X_328_2                       1.000000
X_329_6                       1.000000
X_330_6                       1.000000
X_331_2                       1.000000
X_332_6                       1.000000
X_333_8                       1.000000
X_334_10                      1.000000
X_335_9                       1.000000
X_336_2                       1.000000
X_337_10                      1.000000
X_338_4                       1.000000
X_339_9                       1.000000
X_340_9                       1.000000
X_341_1                       1.000000
X_342_9                       1.000000
X_343_3                       1.000000
X_344_3                       1.000000
X_345_1                       1.000000
X_346_9                       1.000000
X_347_4                       1.000000
X_348_9                       1.000000
X_349_8                       1.000000
X_350_10                      1.000000
X_351_10                      1.000000
X_352_2                       1.000000
X_353_1                       1.000000
X_354_8                       1.000000
X_355_4                       1.000000
X_356_10                      1.000000
X_357_5                       1.000000
X_358_4                       1.000000
X_359_7                       1.000000
X_360_5                       1.000000
X_361_8                       1.000000
X_362_1                       1.000000
X_363_3                       1.000000
X_364_6                       1.000000
X_365_1                       1.000000
X_366_6                       1.000000
X_367_6                       1.000000
X_368_6                       1.000000
X_369_6                       1.000000
X_370_1                       1.000000
X_371_10                      1.000000
X_372_8                       1.000000
X_373_7                       1.000000
X_374_3                       1.000000
X_375_10                      1.000000
X_376_3                       1.000000
X_377_4                       1.000000
X_378_4                       1.000000
X_379_4                       1.000000
X_380_9                       1.000000
X_381_5                       1.000000
X_382_10                      1.000000
X_383_8                       1.000000
X_384_5                       1.000000
X_385_2                       1.000000
X_386_4                       1.000000
X_387_4                       1.000000
X_388_5                       1.000000
X_389_8                       1.000000
X_390_2                       1.000000
X_391_2                       1.000000
X_392_1                       1.000000
X_393_9                       1.000000
X_394_2                       1.000000
X_395_7                       1.000000
X_396_4                       1.000000
X_397_10                      1.000000
X_398_6                       1.000000
X_399_6                       1.000000
X_400_3                       1.000000
X_401_7                       1.000000
X_402_9                       1.000000
X_403_5                       1.000000
X_404_4                       1.000000
X_405_8                       1.000000
X_406_8                       1.000000
X_407_10                      1.000000
X_408_2                       1.000000
X_409_10                      1.000000
X_410_1                       1.000000
X_411_8                       1.000000
X_412_6                       1.000000
X_413_8                       1.000000
X_414_3                       1.000000
X_415_3                       1.000000
X_416_4                       1.000000
X_417_9                       1.000000
X_418_7                       1.000000
X_419_10                      1.000000
X_420_7                       1.000000
X_421_1                       1.000000
X_422_5                       1.000000
X_423_5                       1.000000
X_424_3                       1.000000
X_425_9                       1.000000
X_426_3                       1.000000
X_427_7                       1.000000
X_428_3                       1.000000
X_429_8                       1.000000
X_430_9                       1.000000
X_431_4                       1.000000
X_432_7                       1.000000
X_433_1                       1.000000
X_434_6                       1.000000
X_435_3                       1.000000
X_436_2                       1.000000
X_437_8                       1.000000
X_438_5                       1.000000
X_439_6                       1.000000
X_440_2                       1.000000
X_441_1                       1.000000
X_442_8                       1.000000
X_443_3                       1.000000
X_444_5                       1.000000
X_445_6                       1.000000
X_446_9                       1.000000
X_447_3                       1.000000
X_448_10                      1.000000
X_449_9                       1.000000
X_450_8                       1.000000
X_451_10                      1.000000
X_452_7                       1.000000
X_453_5                       1.000000
X_454_2                       1.000000
X_455_9                       1.000000
X_456_6                       1.000000
X_457_5                       1.000000
X_458_7                       1.000000
X_459_3                       1.000000
X_460_3                       1.000000
X_461_9                       1.000000
X_462_3                       1.000000
X_463_6                       1.000000
X_464_10                      1.000000
X_465_9                       1.000000
X_466_7                       1.000000
X_467_8                       1.000000
X_468_1                       1.000000
X_469_5                       1.000000
X_470_9                       1.000000
X_471_6                       1.000000
X_472_3                       1.000000
X_473_9                       1.000000
X_474_2                       1.000000
X_475_9                       1.000000
X_476_10                      1.000000
X_477_6                       1.000000
X_478_8                       1.000000
X_479_6                       1.000000
X_480_10                      1.000000
X_481_10                      1.000000
X_482_4                       1.000000
X_483_7                       1.000000
X_484_3                       1.000000
X_485_9                       1.000000
X_486_8                       1.000000
X_487_3                       1.000000
X_488_10                      1.000000
X_489_9                       1.000000
X_490_4                       1.000000
X_491_1                       1.000000
X_492_9                       1.000000
X_493_10                      1.000000
X_494_6                       1.000000
X_495_8                       1.000000
X_496_8                       1.000000
X_497_10                      1.000000
X_498_3                       1.000000
X_499_10                      1.000000
X_500_4                       1.000000
All other variables in the range 1-5001 are 0.
